nbObj= 100;
Capacity= 2415;
Profit =[ 28,6,57,26,79,14,23,74,76,8,43,29,1,96,52,68,56,34,94,77,59,97,6,43,81,72,68,28,52,90,16,46,96,38,37,39,51,59,11,92,33,19,19,33,80,70,67,34,69,25,9,26,20,82,34,100,18,1,26,70,56,7,81,16,44,16,54,61,40,30,51,72,48,36,71,26,71,36,25,39,60,34,30,79,81,64,43,98,30,34,32,85,41,11,101,50,93,19,9,99];
Weight =[ 28,6,57,26,79,14,23,74,76,8,43,29,1,96,52,68,56,34,94,77,59,97,6,43,81,72,68,28,52,90,16,46,96,38,37,39,51,59,11,92,33,19,19,33,80,70,67,34,69,25,9,26,20,82,34,100,18,1,26,70,56,7,81,16,44,16,54,61,40,30,51,72,48,36,71,26,71,36,25,39,60,34,30,79,81,64,43,98,30,34,32,85,41,11,101,50,93,19,9,99];
